Version identifier: 22.1.0.0 | 2022-03-09 | 1a383f8ce
CPXPARAM_Threads                                 1
CPXPARAM_MIP_Strategy_VariableSelect             3
CPXPARAM_TimeLimit                               599.99986994599999
1 of 1 MIP starts provided solutions.
MIP start 'm1' defined initial solution with objective 357.0000.
Tried aggregator 1 time.
MIP Presolve eliminated 726 rows and 1428 columns.
Reduced MIP has 2141 rows, 2856 columns, and 25598 nonzeros.
Reduced MIP has 2856 binaries, 0 generals, 0 SOSs, and 0 indicators.
Presolve time = 0.02 sec. (14.71 ticks)
Probing time = 0.00 sec. (2.71 ticks)
Tried aggregator 1 time.
Detecting symmetries...
Reduced MIP has 2141 rows, 2856 columns, and 25598 nonzeros.
Reduced MIP has 2856 binaries, 0 generals, 0 SOSs, and 0 indicators.
Presolve time = 0.02 sec. (14.27 ticks)
Probing time = 0.00 sec. (2.71 ticks)
Clique table members: 1068.
MIP emphasis: balance optimality and feasibility.
MIP search method: dynamic search.
Parallel mode: none, using 1 thread.
Root relaxation solution time = 0.00 sec. (4.44 ticks)

        Nodes                                         Cuts/
   Node  Left     Objective  IInf  Best Integer    Best Bound    ItCnt     Gap

*     0+    0                          357.0000     2856.0000           700.00%
      0     0        cutoff            357.0000                      8     --- 

Root node processing (before b&c):
  Real time             =    0.07 sec. (48.94 ticks)
Sequential b&c:
  Real time             =    0.00 sec. (0.00 ticks)
                          ------------
Total (root+branch&cut) =    0.07 sec. (48.94 ticks)
Primal:	357
Dual:	357
Status:	Optimal
Time:	0.08
Sequence:
	8
	1
	9
	2
	4
	9
	0
	4
	1
	4
	8
	9
	4
	2
	10
	9
	8
	5
	9
	10
	4
	9
	9
	5
	8
	9
	5
	4
	9
	9
	9
	5
	4
	9
	1
	2
	9
	4
	10
	9
	10
	4
	9
	1
	0
	5
	4
	0
	1
	9
	5
	0
	4
	5
	0
	5
	4
	10
	0
	1
	9
	1
	4
	10
	4
	1
	4
	4
	10
	0
	5
	4
	9
	0
	5
	9
	5
	0
	1
	9
	4
	0
	1
	9
	4
	9
	10
	9
	5
	9
	1
	0
	9
	1
	0
	5
	4
	1
	9
	5
	9
	10
	9
	5
	4
	1
	9
	9
	0
	9
	1
	0
	1
	9
	4
	4
	9
	9
	1
	0
	1
	4
	5
	0
	9
	1
	9
	1
	0
	4
	4
	1
	0
	5
	9
	0
	5
	4
	10
	9
	1
	9
	4
	4
	1
	4
	9
	1
	0
	10
	9
	4
	4
	10
	9
	5
	0
	4
	5
	9
	1
	4
	5
	9
	1
	0
	4
	10
	4
	10
	4
	0
	1
	9
	0
	9
	5
	4
	1
	4
	4
	1
	4
	4
	0
	4
	1
	0
	9
	10
	0
	9
	9
	0
	9
	1
	0
	4
	4
	0
	9
	4
	5
	9
	4
	0
	4
	9
	4
	5
	9
	9
	9
	4
	9
	9
	0
	9
	5
	0
	5
	4
	9
	5
	9
	0
	9
	9
	4
	9
	0
	5
	9
	9
	5
	9
	9
	9
	4
	0
	9
	9
	9
	4
	9
	5
	0
	4
	4
	0
	4
	5
	0
	5
	9
	0
	9
	5
	0
	5
	9
	5
	0
	9
	5
	4
	9
	5
	0
	5
	9
	0
	5
	9
	5
	9
	5
	9
	5
	0
	9
	5
	9
	0
	9
	9
	0
	9
	5
	9
	5
	9
	0
	5
	9
	0
	9
	9
	5
	0
	9
	9
	0
	9
	5
	0
	5
	9
	5
	9
	5
	0
	5
	9
	0
	9
	5
	0
	5
	9
	9
	0
	5
	9
	0
	5
	9
	0
	9
	5
	0
	5
	9
	5
	9
	0
	9
	5
	0
	9
	9
	5
	9
	5
	9
	5
	9
	5
	9
	5
	9
	0
	5
	9
	5
	9
	5
